NAME: I6672-n26-k4
COMMENT : (Fake et al, No of trucks: 4, Optimal value: )
TYPE : CVRP
DIMENSION : 26
EDGE_WEIGHT_TYPE : EUC_2D
CAPACITY : 32
NODE_COORD_SECTION
1 236 119
2 550 787
3 564 846
4 675 63
5 511 824
6 27 397
7 224 185
8 121 307
9 489 318
10 870 140
11 21 115
12 971 869
13 64 130
14 268 562
15 526 838
16 27 56
17 735 763
18 759 645
19 790 436
20 721 904
21 237 528
22 532 875
23 430 188
24 650 561
25 419 313
26 250 98
DEMAND_SECTION
1 0
2 1
3 6
4 3
5 1
6 6
7 3
8 6
9 2
10 3
11 5
12 5
13 6
14 6
15 5
16 3
17 1
18 6
19 7
20 4
21 4
22 2
23 3
24 7
25 5
26 7
DEPOT_SECTION
 1
 -1
 EOF 